
Gurobi 7.5.2 (linux64) logging started Sat Jul  7 16:01:30 2018

Changed value of parameter LogFile to result/ilp/simNo_1-n_100-m_40-s_4-minVAF_0.05-cov_10000-k_2-fn_0.25-fp_0.0001-na_0.15.ILP.gurobiSolverLog
   Prev: gurobi.log  Default: 
Changed value of parameter TimeLimit to 86400.0
   Prev: 1e+100  Min: 0.0  Max: 1e+100  Default: 1e+100
Optimize a model with 639293 rows, 10765 columns and 1940420 nonzeros
Variable types: 0 continuous, 10765 integer (10765 binary)
Coefficient statistics:
  Matrix range     [4e-04, 4e+00]
  Objective range  [1e+00, 2e+01]
  Bounds range     [1e+00, 1e+00]
  RHS range        [2e-01, 2e+00]
Found heuristic solution: objective -15389.38918
Presolve removed 127275 rows and 989 columns (presolve time = 5s) ...
Presolve removed 127819 rows and 989 columns (presolve time = 11s) ...
Presolve removed 182219 rows and 1533 columns (presolve time = 16s) ...
Presolve removed 182219 rows and 1533 columns
Presolve time: 17.03s
Presolved: 457074 rows, 9232 columns, 1374017 nonzeros
Variable types: 0 continuous, 9232 integer (9232 binary)
Presolved: 9232 rows, 466306 columns, 1383249 nonzeros

Presolve removed 9232 rows and 466306 columns

Root simplex log...

Iteration    Objective       Primal Inf.    Dual Inf.      Time
       0    4.8464318e+01   0.000000e+00   7.846600e+04     21s
   23063   -2.4139848e+02   0.000000e+00   1.410536e+05     25s
   41761   -2.8774683e+02   0.000000e+00   6.752890e+05     30s
   60351   -3.2717426e+02   0.000000e+00   7.833736e+05     35s
   77179   -3.5246882e+02   0.000000e+00   1.903277e+04     40s
   83230   -3.6005132e+02   0.000000e+00   0.000000e+00     42s
   83230   -3.6005132e+02   0.000000e+00   0.000000e+00     42s

Root relaxation: objective -3.600513e+02, 83230 iterations, 23.40 seconds
Total elapsed time = 113.07s
Total elapsed time = 213.82s
Total elapsed time = 314.03s

    Nodes    |    Current Node    |     Objective Bounds      |     Work
 Expl Unexpl |  Obj  Depth IntInf | Incumbent    BestBd   Gap | It/Node Time

     0     0 -360.05132    0 1924 -15389.389 -360.05132  97.7%     -  360s
H    0     0                    -524.4334618 -360.05132  31.3%     -  363s
H    0     0                    -466.1019512 -360.05132  22.8%     -  367s
     0     0 -366.33816    0 2795 -466.10195 -366.33816  21.4%     - 1044s
H    0     0                    -455.3279497 -366.33816  19.5%     - 1057s
     0     0 -369.22395    0 2862 -455.32795 -369.22395  18.9%     - 1918s
     0     0 -369.52575    0 2873 -455.32795 -369.52575  18.8%     - 2002s
     0     0 -369.62365    0 2884 -455.32795 -369.62365  18.8%     - 2090s
     0     0 -369.63457    0 2875 -455.32795 -369.63457  18.8%     - 2099s
     0     0 -369.63797    0 2873 -455.32795 -369.63797  18.8%     - 2108s
     0     0 -369.64410    0 2870 -455.32795 -369.64410  18.8%     - 2130s
     0     0 -371.54355    0 2678 -455.32795 -371.54355  18.4%     - 2560s
H    0     0                    -453.3690403 -371.54355  18.0%     - 2565s
     0     0 -371.56096    0 2674 -453.36904 -371.56096  18.0%     - 2569s
     0     0 -371.57569    0 1940 -453.36904 -371.57569  18.0%     - 2575s
     0     0 -371.60003    0 1946 -453.36904 -371.60003  18.0%     - 2592s
     0     0 -371.64937    0 2117 -453.36904 -371.64937  18.0%     - 2634s
     0     0 -372.63846    0 1948 -453.36904 -372.63846  17.8%     - 2860s
H    0     0                    -452.3895856 -372.63846  17.6%     - 2866s
     0     0 -372.72866    0 2674 -452.38959 -372.72866  17.6%     - 2917s
     0     0 -372.74053    0 2670 -452.38959 -372.74053  17.6%     - 2937s
     0     0 -374.83417    0 2663 -452.38959 -374.83417  17.1%     - 5163s
     0     0 -374.85216    0 2662 -452.38959 -374.85216  17.1%     - 5175s
     0     0 -374.85216    0 2663 -452.38959 -374.85216  17.1%     - 5179s
     0     0 -375.44266    0 1799 -452.38959 -375.44266  17.0%     - 5752s
H    0     0                    -440.6361294 -375.44266  14.8%     - 5770s
     0     0 -375.53466    0 1802 -440.63613 -375.53466  14.8%     - 5795s
     0     0 -375.53949    0 1803 -440.63613 -375.53949  14.8%     - 5801s
     0     0 -375.54256    0 1802 -440.63613 -375.54256  14.8%     - 5803s
     0     0 -375.54256    0 1803 -440.63613 -375.54256  14.8%     - 5805s
     0     0 -376.83881    0 2163 -440.63613 -376.83881  14.5%     - 8836s
H    0     0                    -439.6566748 -376.83881  14.3%     - 8840s
     0     0 -377.43451    0 2747 -439.65667 -377.43451  14.2%     - 9182s
     0     0 -377.43451    0 2742 -439.65667 -377.43451  14.2%     - 9189s
     0     0 -378.12391    0 2723 -439.65667 -378.12391  14.0%     - 9660s
     0     0 -378.14863    0 2702 -439.65667 -378.14863  14.0%     - 9711s
     0     0 -378.15089    0 2705 -439.65667 -378.15089  14.0%     - 9721s
     0     0 -378.17363    0 2760 -439.65667 -378.17363  14.0%     - 9751s
     0     0 -378.18058    0 2760 -439.65667 -378.18058  14.0%     - 9773s
     0     0 -378.18058    0 2762 -439.65667 -378.18058  14.0%     - 9778s
     0     0 -379.43902    0 2709 -439.65667 -379.43902  13.7%     - 10884s
     0     0 -379.57136    0 2693 -439.65667 -379.57136  13.7%     - 10963s
     0     0 -379.65420    0 2701 -439.65667 -379.65420  13.6%     - 10989s
     0     0 -379.73934    0 2701 -439.65667 -379.73934  13.6%     - 11018s
     0     0 -379.73954    0 2702 -439.65667 -379.73954  13.6%     - 11027s
     0     0 -380.20570    0 2698 -439.65667 -380.20570  13.5%     - 11158s
     0     0 -380.22589    0 2705 -439.65667 -380.22589  13.5%     - 11174s
     0     0 -380.38290    0 2705 -439.65667 -380.38290  13.5%     - 11188s
     0     0 -380.38747    0 2703 -439.65667 -380.38747  13.5%     - 11196s
     0     0 -380.46323    0 2709 -439.65667 -380.46323  13.5%     - 11207s
     0     0 -380.46323    0 2713 -439.65667 -380.46323  13.5%     - 11212s
     0     0 -381.28942    0 2723 -439.65667 -381.28942  13.3%     - 11659s
     0     0 -381.29458    0 2723 -439.65667 -381.29458  13.3%     - 11674s
     0     0 -381.30654    0 2728 -439.65667 -381.30654  13.3%     - 11690s
     0     0 -381.36992    0 2728 -439.65667 -381.36992  13.3%     - 11718s
     0     0 -381.36992    0 2731 -439.65667 -381.36992  13.3%     - 11723s
     0     0 -382.10098    0 2717 -439.65667 -382.10098  13.1%     - 12046s
     0     0 -382.56353    0 2725 -439.65667 -382.56353  13.0%     - 12482s
     0     0 -382.57020    0 2732 -439.65667 -382.57020  13.0%     - 12496s
     0     0 -382.57020    0 2733 -439.65667 -382.57020  13.0%     - 12502s
     0     0 -383.75042    0 2709 -439.65667 -383.75042  12.7%     - 14955s
     0     0 -383.75249    0 2718 -439.65667 -383.75249  12.7%     - 16403s
     0     0 -384.46654    0 2711 -439.65667 -384.46654  12.6%     - 17793s
     0     0 -384.52848    0 2701 -439.65667 -384.52848  12.5%     - 17856s
     0     0 -384.52848    0 2703 -439.65667 -384.52848  12.5%     - 17863s
     0     0 -385.57744    0 2724 -439.65667 -385.57744  12.3%     - 19600s
     0     0 -385.76160    0 2735 -439.65667 -385.76160  12.3%     - 19631s
     0     0 -385.80966    0 2717 -439.65667 -385.80966  12.2%     - 19657s
     0     0 -385.81007    0 2725 -439.65667 -385.81007  12.2%     - 19667s
     0     0 -386.68397    0 2650 -439.65667 -386.68397  12.0%     - 20137s
     0     0 -386.71743    0 2644 -439.65667 -386.71743  12.0%     - 20168s
     0     0 -386.73912    0 2662 -439.65667 -386.73912  12.0%     - 20182s
     0     0 -386.79018    0 2659 -439.65667 -386.79018  12.0%     - 20206s
     0     0 -386.79018    0 2657 -439.65667 -386.79018  12.0%     - 20213s
     0     0 -387.34510    0 2665 -439.65667 -387.34510  11.9%     - 21979s
     0     0 -387.55287    0 2670 -439.65667 -387.55287  11.9%     - 22031s
     0     0 -387.60840    0 2670 -439.65667 -387.60840  11.8%     - 22042s
     0     0 -387.63512    0 2667 -439.65667 -387.63512  11.8%     - 22050s
     0     0 -387.63512    0 2668 -439.65667 -387.63512  11.8%     - 22054s
     0     0 -387.99004    0 3427 -439.65667 -387.99004  11.8%     - 22248s
     0     0 -388.51959    0 3433 -439.65667 -388.51959  11.6%     - 22338s
     0     0 -388.54360    0 3425 -439.65667 -388.54360  11.6%     - 22345s
     0     0 -388.55518    0 3425 -439.65667 -388.55518  11.6%     - 22351s
     0     0 -388.56786    0 3419 -439.65667 -388.56786  11.6%     - 22356s
     0     0 -388.57775    0 3421 -439.65667 -388.57775  11.6%     - 22361s
     0     0 -388.57775    0 3426 -439.65667 -388.57775  11.6%     - 22364s
     0     0 -389.13484    0 2660 -439.65667 -389.13484  11.5%     - 22434s
     0     0 -389.16943    0 2653 -439.65667 -389.16943  11.5%     - 22447s
     0     0 -389.31635    0 2652 -439.65667 -389.31635  11.4%     - 22512s
     0     0 -389.31635    0 2656 -439.65667 -389.31635  11.4%     - 22520s
     0     0 -390.02413    0 2657 -439.65667 -390.02413  11.3%     - 26162s
     0     0 -390.08132    0 2666 -439.65667 -390.08132  11.3%     - 26303s
     0     0 -390.08819    0 2665 -439.65667 -390.08819  11.3%     - 26322s
     0     0 -390.08819    0 2666 -439.65667 -390.08819  11.3%     - 26332s
     0     0 -390.12009    0 2668 -439.65667 -390.12009  11.3%     - 26386s
H    0     0                    -438.6772201 -390.12009  11.1%     - 26503s
     0     0 -390.14897    0 2670 -438.67722 -390.14897  11.1%     - 26570s
     0     0 -390.18130    0 2681 -438.67722 -390.18130  11.1%     - 26677s
     0     0 -390.18133    0 2685 -438.67722 -390.18133  11.1%     - 26686s
     0     0 -391.41537    0 2691 -438.67722 -391.41537  10.8%     - 32254s
H    0     0                    -437.6977654 -391.41537  10.6%     - 32346s
     0     0 -391.66044    0 2681 -437.69777 -391.66044  10.5%     - 32457s
     0     0 -391.73130    0 2686 -437.69777 -391.73130  10.5%     - 32535s
     0     0 -391.75569    0 2675 -437.69777 -391.75569  10.5%     - 32556s
     0     0 -391.77046    0 2697 -437.69777 -391.77046  10.5%     - 32582s
     0     0 -391.77126    0 2695 -437.69777 -391.77126  10.5%     - 32588s
     0     0 -392.49157    0 2790 -437.69777 -392.49157  10.3%     - 36474s
     0     0 -392.63148    0 2797 -437.69777 -392.63148  10.3%     - 36710s
     0     0 -392.68739    0 2765 -437.69777 -392.68739  10.3%     - 36730s
     0     0 -392.71604    0 2768 -437.69777 -392.71604  10.3%     - 36760s
     0     0 -392.73595    0 2709 -437.69777 -392.73595  10.3%     - 36772s
     0     0 -392.73771    0 2765 -437.69777 -392.73771  10.3%     - 36778s
     0     0 -393.66879    0 2678 -437.69777 -393.66879  10.1%     - 37603s
     0     0 -393.95066    0 2647 -437.69777 -393.95066  10.0%     - 38556s
     0     0 -393.99121    0 2666 -437.69777 -393.99121  10.0%     - 38604s
     0     0 -394.00810    0 2669 -437.69777 -394.00810  10.0%     - 38647s
     0     0 -394.04617    0 2666 -437.69777 -394.04617  10.0%     - 38716s
     0     0 -394.04617    0 2673 -437.69777 -394.04617  10.0%     - 38723s
     0     0 -394.76530    0 2678 -437.69777 -394.76530  9.81%     - 42742s
H    0     0                    -435.7388560 -394.76530  9.40%     - 43747s
     0     0 -394.80593    0 2704 -435.73886 -394.80593  9.39%     - 43795s
     0     0 -394.81284    0 2692 -435.73886 -394.81284  9.39%     - 43806s
     0     0 -394.81284    0 2695 -435.73886 -394.81284  9.39%     - 43813s
     0     0 -395.18944    0 2531 -435.73886 -395.18944  9.31%     - 47574s
     0     0 -395.41967    0 2548 -435.73886 -395.41967  9.25%     - 50085s
     0     0 -395.51295    0 2541 -435.73886 -395.51295  9.23%     - 50150s
     0     0 -395.55318    0 2539 -435.73886 -395.55318  9.22%     - 50211s
     0     0 -395.56080    0 2529 -435.73886 -395.56080  9.22%     - 50260s
     0     0 -395.56180    0 2527 -435.73886 -395.56180  9.22%     - 50279s
     0     0 -396.08439    0 2539 -435.73886 -396.08439  9.10%     - 64306s
     0     0 -396.08439    0 2530 -435.73886 -396.08439  9.10%     - 64455s
     0     0 -396.21431    0 2529 -435.73886 -396.21431  9.07%     - 64601s
     0     0 -396.38061    0 2553 -435.73886 -396.38061  9.03%     - 67299s
     0     0 -396.62241    0 2540 -435.73886 -396.62241  8.98%     - 69723s
     0     0 -396.65492    0 2527 -435.73886 -396.65492  8.97%     - 70086s
     0     0 -396.65492    0 2525 -435.73886 -396.65492  8.97%     - 70095s
     0     0 -396.84198    0 2522 -435.73886 -396.84198  8.93%     - 71533s
     0     0 -397.04927    0 2594 -435.73886 -397.04927  8.88%     - 72523s
     0     0 -397.05365    0 2607 -435.73886 -397.05365  8.88%     - 72547s
     0     0 -397.07041    0 2602 -435.73886 -397.07041  8.87%     - 72682s
     0     0 -397.07697    0 2603 -435.73886 -397.07697  8.87%     - 72703s
     0     0 -397.07697    0 2605 -435.73886 -397.07697  8.87%     - 72710s
     0     0 -397.47633    0 2612 -435.73886 -397.47633  8.78%     - 76436s
     0     0 -397.53088    0 2603 -435.73886 -397.53088  8.77%     - 78264s
     0     0 -397.53399    0 2605 -435.73886 -397.53399  8.77%     - 78311s
     0     0          -    0      -435.73886 -397.53399  8.77%     - 86400s

Cutting planes:
  Gomory: 1
  Zero half: 300

Explored 1 nodes (2713626 simplex iterations) in 86400.18 seconds
Thread count was 1 (of 80 available processors)

Solution count 10: -435.739 -437.698 -438.677 ... -524.433

Time limit reached
Best objective -4.357388560272e+02, best bound -3.975339862699e+02, gap 8.7678%
